p cnf 10 15
-1 -8 4 -5 3 0
2 -7 9 -6 4 0
1 10 7 -3 -9 0
-6 8 7 1 2 0
9 -1 -8 10 -3 0
2 6 1 -3 -4 0
-6 4 -3 -2 1 0
3 8 7 5 9 0
-6 5 -2 -8 4 0
9 -5 -1 -10 -3 0
-6 9 -10 -1 -8 0
-1 2 -9 -3 4 0
5 -3 1 -8 -10 0
5 -7 1 10 9 0
-3 6 -5 -8 4 0
